&input
fildyn = 'Nb.dyn.xml', 
flfrc  = 'Nb.fc'
/

