&CONTROL
 calculation  = 'relax',
 prefix       = 'H2O',
 pseudo_dir   = './',
 outdir       = './',
 forc_conv_thr = 1.0d-5,
 etot_conv_thr = 1.0d-6
/
&SYSTEM    
 ibrav        = 0
 nat          = 3,
 ntyp         = 2,
 ecutwfc      = 70
 occupations  = 'fixed'
/
&ELECTRONS
 conv_thr         = 1.0d-12
 diagonalization  = 'cg'
 electron_maxstep = 200
/
&IONS
/
&CELL
/
ATOMIC_SPECIES
 H 1.0078 H.upf 
 O 15.999 O.upf 

CELL_PARAMETERS (angstrom)
  10.0000000000000000   0.0000000000000000    0.0000000000000000
   0.0000000000000000  10.0000000000000000    0.0000000000000000 
   0.0000000000000000   0.0000000000000000   10.0000000000000000 

ATOMIC_POSITIONS (angstrom)
O     5.000 5.000 5.000
H     5.757 5.000 5.589
H     5.757 5.000 4.411

K_POINTS gamma

