&CONTROL
 calculation  = 'bands',
 prefix       = 'Nb',
 pseudo_dir   = './',
 outdir       = './',
/
&SYSTEM    
 ibrav        = 0
 nat          = 1,
 ntyp         = 1,
 ecutwfc      = 70
 smearing     = 'mp'
 occupations  = 'smearing'
 degauss      = 0.01
/
&ELECTRONS
 conv_thr         = 1.0d-12
 diagonalization  = 'cg'
 electron_maxstep = 200
/
&IONS
/
&CELL
/
ATOMIC_SPECIES
 Nb 92.90638 Nb.upf 

CELL_PARAMETERS (angstrom)
  -1.654690977   1.654690977   1.654690977
   1.654690977  -1.654690977   1.654690977
   1.654690977   1.654690977  -1.654690977

ATOMIC_POSITIONS (crystal)
Nb            0.0000000000        0.0000000000        0.0000000000

K_POINTS crystal
344
    0.0000000000     0.0000000000     0.0000000000 1 !G
    0.0067567568    -0.0067567568     0.0067567568 1
    0.0135135135    -0.0135135135     0.0135135135 1
    0.0202702703    -0.0202702703     0.0202702703 1
    0.0270270270    -0.0270270270     0.0270270270 1
    0.0337837838    -0.0337837838     0.0337837838 1
    0.0405405405    -0.0405405405     0.0405405405 1
    0.0472972973    -0.0472972973     0.0472972973 1
    0.0540540541    -0.0540540541     0.0540540541 1
    0.0608108108    -0.0608108108     0.0608108108 1
    0.0675675676    -0.0675675676     0.0675675676 1
    0.0743243243    -0.0743243243     0.0743243243 1
    0.0810810811    -0.0810810811     0.0810810811 1
    0.0878378378    -0.0878378378     0.0878378378 1
    0.0945945946    -0.0945945946     0.0945945946 1
    0.1013513514    -0.1013513514     0.1013513514 1
    0.1081081081    -0.1081081081     0.1081081081 1
    0.1148648649    -0.1148648649     0.1148648649 1
    0.1216216216    -0.1216216216     0.1216216216 1
    0.1283783784    -0.1283783784     0.1283783784 1
    0.1351351351    -0.1351351351     0.1351351351 1
    0.1418918919    -0.1418918919     0.1418918919 1
    0.1486486486    -0.1486486486     0.1486486486 1
    0.1554054054    -0.1554054054     0.1554054054 1
    0.1621621622    -0.1621621622     0.1621621622 1
    0.1689189189    -0.1689189189     0.1689189189 1
    0.1756756757    -0.1756756757     0.1756756757 1
    0.1824324324    -0.1824324324     0.1824324324 1
    0.1891891892    -0.1891891892     0.1891891892 1
    0.1959459459    -0.1959459459     0.1959459459 1
    0.2027027027    -0.2027027027     0.2027027027 1
    0.2094594595    -0.2094594595     0.2094594595 1
    0.2162162162    -0.2162162162     0.2162162162 1
    0.2229729730    -0.2229729730     0.2229729730 1
    0.2297297297    -0.2297297297     0.2297297297 1
    0.2364864865    -0.2364864865     0.2364864865 1
    0.2432432432    -0.2432432432     0.2432432432 1
    0.2500000000    -0.2500000000     0.2500000000 1
    0.2567567568    -0.2567567568     0.2567567568 1
    0.2635135135    -0.2635135135     0.2635135135 1
    0.2702702703    -0.2702702703     0.2702702703 1
    0.2770270270    -0.2770270270     0.2770270270 1
    0.2837837838    -0.2837837838     0.2837837838 1
    0.2905405405    -0.2905405405     0.2905405405 1
    0.2972972973    -0.2972972973     0.2972972973 1
    0.3040540541    -0.3040540541     0.3040540541 1
    0.3108108108    -0.3108108108     0.3108108108 1
    0.3175675676    -0.3175675676     0.3175675676 1
    0.3243243243    -0.3243243243     0.3243243243 1
    0.3310810811    -0.3310810811     0.3310810811 1
    0.3378378378    -0.3378378378     0.3378378378 1
    0.3445945946    -0.3445945946     0.3445945946 1
    0.3513513514    -0.3513513514     0.3513513514 1
    0.3581081081    -0.3581081081     0.3581081081 1
    0.3648648649    -0.3648648649     0.3648648649 1
    0.3716216216    -0.3716216216     0.3716216216 1
    0.3783783784    -0.3783783784     0.3783783784 1
    0.3851351351    -0.3851351351     0.3851351351 1
    0.3918918919    -0.3918918919     0.3918918919 1
    0.3986486486    -0.3986486486     0.3986486486 1
    0.4054054054    -0.4054054054     0.4054054054 1
    0.4121621622    -0.4121621622     0.4121621622 1
    0.4189189189    -0.4189189189     0.4189189189 1
    0.4256756757    -0.4256756757     0.4256756757 1
    0.4324324324    -0.4324324324     0.4324324324 1
    0.4391891892    -0.4391891892     0.4391891892 1
    0.4459459459    -0.4459459459     0.4459459459 1
    0.4527027027    -0.4527027027     0.4527027027 1
    0.4594594595    -0.4594594595     0.4594594595 1
    0.4662162162    -0.4662162162     0.4662162162 1
    0.4729729730    -0.4729729730     0.4729729730 1
    0.4797297297    -0.4797297297     0.4797297297 1
    0.4864864865    -0.4864864865     0.4864864865 1
    0.4932432432    -0.4932432432     0.4932432432 1
    0.5000000000    -0.5000000000     0.5000000000 1 !H
    0.4903846154    -0.4903846154     0.5000000000 1
    0.4807692308    -0.4807692308     0.5000000000 1
    0.4711538462    -0.4711538462     0.5000000000 1
    0.4615384615    -0.4615384615     0.5000000000 1
    0.4519230769    -0.4519230769     0.5000000000 1
    0.4423076923    -0.4423076923     0.5000000000 1
    0.4326923077    -0.4326923077     0.5000000000 1
    0.4230769231    -0.4230769231     0.5000000000 1
    0.4134615385    -0.4134615385     0.5000000000 1
    0.4038461538    -0.4038461538     0.5000000000 1
    0.3942307692    -0.3942307692     0.5000000000 1
    0.3846153846    -0.3846153846     0.5000000000 1
    0.3750000000    -0.3750000000     0.5000000000 1
    0.3653846154    -0.3653846154     0.5000000000 1
    0.3557692308    -0.3557692308     0.5000000000 1
    0.3461538462    -0.3461538462     0.5000000000 1
    0.3365384615    -0.3365384615     0.5000000000 1
    0.3269230769    -0.3269230769     0.5000000000 1
    0.3173076923    -0.3173076923     0.5000000000 1
    0.3076923077    -0.3076923077     0.5000000000 1
    0.2980769231    -0.2980769231     0.5000000000 1
    0.2884615385    -0.2884615385     0.5000000000 1
    0.2788461538    -0.2788461538     0.5000000000 1
    0.2692307692    -0.2692307692     0.5000000000 1
    0.2596153846    -0.2596153846     0.5000000000 1
    0.2500000000    -0.2500000000     0.5000000000 1
    0.2403846154    -0.2403846154     0.5000000000 1
    0.2307692308    -0.2307692308     0.5000000000 1
    0.2211538462    -0.2211538462     0.5000000000 1
    0.2115384615    -0.2115384615     0.5000000000 1
    0.2019230769    -0.2019230769     0.5000000000 1
    0.1923076923    -0.1923076923     0.5000000000 1
    0.1826923077    -0.1826923077     0.5000000000 1
    0.1730769231    -0.1730769231     0.5000000000 1
    0.1634615385    -0.1634615385     0.5000000000 1
    0.1538461538    -0.1538461538     0.5000000000 1
    0.1442307692    -0.1442307692     0.5000000000 1
    0.1346153846    -0.1346153846     0.5000000000 1
    0.1250000000    -0.1250000000     0.5000000000 1
    0.1153846154    -0.1153846154     0.5000000000 1
    0.1057692308    -0.1057692308     0.5000000000 1
    0.0961538462    -0.0961538462     0.5000000000 1
    0.0865384615    -0.0865384615     0.5000000000 1
    0.0769230769    -0.0769230769     0.5000000000 1
    0.0673076923    -0.0673076923     0.5000000000 1
    0.0576923077    -0.0576923077     0.5000000000 1
    0.0480769231    -0.0480769231     0.5000000000 1
    0.0384615385    -0.0384615385     0.5000000000 1
    0.0288461538    -0.0288461538     0.5000000000 1
    0.0192307692    -0.0192307692     0.5000000000 1
    0.0096153846    -0.0096153846     0.5000000000 1
    0.0000000000     0.0000000000     0.5000000000 1 !N
    0.0000000000     0.0000000000     0.4903846154 1
    0.0000000000     0.0000000000     0.4807692308 1
    0.0000000000     0.0000000000     0.4711538462 1
    0.0000000000     0.0000000000     0.4615384615 1
    0.0000000000     0.0000000000     0.4519230769 1
    0.0000000000     0.0000000000     0.4423076923 1
    0.0000000000     0.0000000000     0.4326923077 1
    0.0000000000     0.0000000000     0.4230769231 1
    0.0000000000     0.0000000000     0.4134615385 1
    0.0000000000     0.0000000000     0.4038461538 1
    0.0000000000     0.0000000000     0.3942307692 1
    0.0000000000     0.0000000000     0.3846153846 1
    0.0000000000     0.0000000000     0.3750000000 1
    0.0000000000     0.0000000000     0.3653846154 1
    0.0000000000     0.0000000000     0.3557692308 1
    0.0000000000     0.0000000000     0.3461538462 1
    0.0000000000     0.0000000000     0.3365384615 1
    0.0000000000     0.0000000000     0.3269230769 1
    0.0000000000     0.0000000000     0.3173076923 1
    0.0000000000     0.0000000000     0.3076923077 1
    0.0000000000     0.0000000000     0.2980769231 1
    0.0000000000     0.0000000000     0.2884615385 1
    0.0000000000     0.0000000000     0.2788461538 1
    0.0000000000     0.0000000000     0.2692307692 1
    0.0000000000     0.0000000000     0.2596153846 1
    0.0000000000     0.0000000000     0.2500000000 1
    0.0000000000     0.0000000000     0.2403846154 1
    0.0000000000     0.0000000000     0.2307692308 1
    0.0000000000     0.0000000000     0.2211538462 1
    0.0000000000     0.0000000000     0.2115384615 1
    0.0000000000     0.0000000000     0.2019230769 1
    0.0000000000     0.0000000000     0.1923076923 1
    0.0000000000     0.0000000000     0.1826923077 1
    0.0000000000     0.0000000000     0.1730769231 1
    0.0000000000     0.0000000000     0.1634615385 1
    0.0000000000     0.0000000000     0.1538461538 1
    0.0000000000     0.0000000000     0.1442307692 1
    0.0000000000     0.0000000000     0.1346153846 1
    0.0000000000     0.0000000000     0.1250000000 1
    0.0000000000     0.0000000000     0.1153846154 1
    0.0000000000     0.0000000000     0.1057692308 1
    0.0000000000     0.0000000000     0.0961538462 1
    0.0000000000     0.0000000000     0.0865384615 1
    0.0000000000     0.0000000000     0.0769230769 1
    0.0000000000     0.0000000000     0.0673076923 1
    0.0000000000     0.0000000000     0.0576923077 1
    0.0000000000     0.0000000000     0.0480769231 1
    0.0000000000     0.0000000000     0.0384615385 1
    0.0000000000     0.0000000000     0.0288461538 1
    0.0000000000     0.0000000000     0.0192307692 1
    0.0000000000     0.0000000000     0.0096153846 1
    0.0000000000     0.0000000000     0.0000000000 1 !G
    0.0039062500     0.0039062500     0.0039062500 1
    0.0078125000     0.0078125000     0.0078125000 1
    0.0117187500     0.0117187500     0.0117187500 1
    0.0156250000     0.0156250000     0.0156250000 1
    0.0195312500     0.0195312500     0.0195312500 1
    0.0234375000     0.0234375000     0.0234375000 1
    0.0273437500     0.0273437500     0.0273437500 1
    0.0312500000     0.0312500000     0.0312500000 1
    0.0351562500     0.0351562500     0.0351562500 1
    0.0390625000     0.0390625000     0.0390625000 1
    0.0429687500     0.0429687500     0.0429687500 1
    0.0468750000     0.0468750000     0.0468750000 1
    0.0507812500     0.0507812500     0.0507812500 1
    0.0546875000     0.0546875000     0.0546875000 1
    0.0585937500     0.0585937500     0.0585937500 1
    0.0625000000     0.0625000000     0.0625000000 1
    0.0664062500     0.0664062500     0.0664062500 1
    0.0703125000     0.0703125000     0.0703125000 1
    0.0742187500     0.0742187500     0.0742187500 1
    0.0781250000     0.0781250000     0.0781250000 1
    0.0820312500     0.0820312500     0.0820312500 1
    0.0859375000     0.0859375000     0.0859375000 1
    0.0898437500     0.0898437500     0.0898437500 1
    0.0937500000     0.0937500000     0.0937500000 1
    0.0976562500     0.0976562500     0.0976562500 1
    0.1015625000     0.1015625000     0.1015625000 1
    0.1054687500     0.1054687500     0.1054687500 1
    0.1093750000     0.1093750000     0.1093750000 1
    0.1132812500     0.1132812500     0.1132812500 1
    0.1171875000     0.1171875000     0.1171875000 1
    0.1210937500     0.1210937500     0.1210937500 1
    0.1250000000     0.1250000000     0.1250000000 1
    0.1289062500     0.1289062500     0.1289062500 1
    0.1328125000     0.1328125000     0.1328125000 1
    0.1367187500     0.1367187500     0.1367187500 1
    0.1406250000     0.1406250000     0.1406250000 1
    0.1445312500     0.1445312500     0.1445312500 1
    0.1484375000     0.1484375000     0.1484375000 1
    0.1523437500     0.1523437500     0.1523437500 1
    0.1562500000     0.1562500000     0.1562500000 1
    0.1601562500     0.1601562500     0.1601562500 1
    0.1640625000     0.1640625000     0.1640625000 1
    0.1679687500     0.1679687500     0.1679687500 1
    0.1718750000     0.1718750000     0.1718750000 1
    0.1757812500     0.1757812500     0.1757812500 1
    0.1796875000     0.1796875000     0.1796875000 1
    0.1835937500     0.1835937500     0.1835937500 1
    0.1875000000     0.1875000000     0.1875000000 1
    0.1914062500     0.1914062500     0.1914062500 1
    0.1953125000     0.1953125000     0.1953125000 1
    0.1992187500     0.1992187500     0.1992187500 1
    0.2031250000     0.2031250000     0.2031250000 1
    0.2070312500     0.2070312500     0.2070312500 1
    0.2109375000     0.2109375000     0.2109375000 1
    0.2148437500     0.2148437500     0.2148437500 1
    0.2187500000     0.2187500000     0.2187500000 1
    0.2226562500     0.2226562500     0.2226562500 1
    0.2265625000     0.2265625000     0.2265625000 1
    0.2304687500     0.2304687500     0.2304687500 1
    0.2343750000     0.2343750000     0.2343750000 1
    0.2382812500     0.2382812500     0.2382812500 1
    0.2421875000     0.2421875000     0.2421875000 1
    0.2460937500     0.2460937500     0.2460937500 1
    0.2500000000     0.2500000000     0.2500000000 1
    0.2539062500     0.2382812500     0.2539062500 1
    0.2578125000     0.2265625000     0.2578125000 1
    0.2617187500     0.2148437500     0.2617187500 1
    0.2656250000     0.2031250000     0.2656250000 1
    0.2695312500     0.1914062500     0.2695312500 1
    0.2734375000     0.1796875000     0.2734375000 1
    0.2773437500     0.1679687500     0.2773437500 1
    0.2812500000     0.1562500000     0.2812500000 1
    0.2851562500     0.1445312500     0.2851562500 1
    0.2890625000     0.1328125000     0.2890625000 1
    0.2929687500     0.1210937500     0.2929687500 1
    0.2968750000     0.1093750000     0.2968750000 1
    0.3007812500     0.0976562500     0.3007812500 1
    0.3046875000     0.0859375000     0.3046875000 1
    0.3085937500     0.0742187500     0.3085937500 1
    0.3125000000     0.0625000000     0.3125000000 1
    0.3164062500     0.0507812500     0.3164062500 1
    0.3203125000     0.0390625000     0.3203125000 1
    0.3242187500     0.0273437500     0.3242187500 1
    0.3281250000     0.0156250000     0.3281250000 1
    0.3320312500     0.0039062500     0.3320312500 1
    0.3359375000    -0.0078125000     0.3359375000 1
    0.3398437500    -0.0195312500     0.3398437500 1
    0.3437500000    -0.0312500000     0.3437500000 1
    0.3476562500    -0.0429687500     0.3476562500 1
    0.3515625000    -0.0546875000     0.3515625000 1
    0.3554687500    -0.0664062500     0.3554687500 1
    0.3593750000    -0.0781250000     0.3593750000 1
    0.3632812500    -0.0898437500     0.3632812500 1
    0.3671875000    -0.1015625000     0.3671875000 1
    0.3710937500    -0.1132812500     0.3710937500 1
    0.3750000000    -0.1250000000     0.3750000000 1
    0.3789062500    -0.1367187500     0.3789062500 1
    0.3828125000    -0.1484375000     0.3828125000 1
    0.3867187500    -0.1601562500     0.3867187500 1
    0.3906250000    -0.1718750000     0.3906250000 1
    0.3945312500    -0.1835937500     0.3945312500 1
    0.3984375000    -0.1953125000     0.3984375000 1
    0.4023437500    -0.2070312500     0.4023437500 1
    0.4062500000    -0.2187500000     0.4062500000 1
    0.4101562500    -0.2304687500     0.4101562500 1
    0.4140625000    -0.2421875000     0.4140625000 1
    0.4179687500    -0.2539062500     0.4179687500 1
    0.4218750000    -0.2656250000     0.4218750000 1
    0.4257812500    -0.2773437500     0.4257812500 1
    0.4296875000    -0.2890625000     0.4296875000 1
    0.4335937500    -0.3007812500     0.4335937500 1
    0.4375000000    -0.3125000000     0.4375000000 1
    0.4414062500    -0.3242187500     0.4414062500 1
    0.4453125000    -0.3359375000     0.4453125000 1
    0.4492187500    -0.3476562500     0.4492187500 1
    0.4531250000    -0.3593750000     0.4531250000 1
    0.4570312500    -0.3710937500     0.4570312500 1
    0.4609375000    -0.3828125000     0.4609375000 1
    0.4648437500    -0.3945312500     0.4648437500 1
    0.4687500000    -0.4062500000     0.4687500000 1
    0.4726562500    -0.4179687500     0.4726562500 1
    0.4765625000    -0.4296875000     0.4765625000 1
    0.4804687500    -0.4414062500     0.4804687500 1
    0.4843750000    -0.4531250000     0.4843750000 1
    0.4882812500    -0.4648437500     0.4882812500 1
    0.4921875000    -0.4765625000     0.4921875000 1
    0.4960937500    -0.4882812500     0.4960937500 1
    0.5000000000    -0.5000000000     0.5000000000 1 !H
    0.2500000000     0.2500000000     0.2500000000 1
    0.2430555556     0.2430555556     0.2569444444 1
    0.2361111111     0.2361111111     0.2638888889 1
    0.2291666667     0.2291666667     0.2708333333 1
    0.2222222222     0.2222222222     0.2777777778 1
    0.2152777778     0.2152777778     0.2847222222 1
    0.2083333333     0.2083333333     0.2916666667 1
    0.2013888889     0.2013888889     0.2986111111 1
    0.1944444444     0.1944444444     0.3055555556 1
    0.1875000000     0.1875000000     0.3125000000 1
    0.1805555556     0.1805555556     0.3194444444 1
    0.1736111111     0.1736111111     0.3263888889 1
    0.1666666667     0.1666666667     0.3333333333 1
    0.1597222222     0.1597222222     0.3402777778 1
    0.1527777778     0.1527777778     0.3472222222 1
    0.1458333333     0.1458333333     0.3541666667 1
    0.1388888889     0.1388888889     0.3611111111 1
    0.1319444444     0.1319444444     0.3680555556 1
    0.1250000000     0.1250000000     0.3750000000 1
    0.1180555556     0.1180555556     0.3819444444 1
    0.1111111111     0.1111111111     0.3888888889 1
    0.1041666667     0.1041666667     0.3958333333 1
    0.0972222222     0.0972222222     0.4027777778 1
    0.0902777778     0.0902777778     0.4097222222 1
    0.0833333333     0.0833333333     0.4166666667 1
    0.0763888889     0.0763888889     0.4236111111 1
    0.0694444444     0.0694444444     0.4305555556 1
    0.0625000000     0.0625000000     0.4375000000 1
    0.0555555556     0.0555555556     0.4444444444 1
    0.0486111111     0.0486111111     0.4513888889 1
    0.0416666667     0.0416666667     0.4583333333 1
    0.0347222222     0.0347222222     0.4652777778 1
    0.0277777778     0.0277777778     0.4722222222 1
    0.0208333333     0.0208333333     0.4791666667 1
    0.0138888889     0.0138888889     0.4861111111 1
    0.0069444444     0.0069444444     0.4930555556 1
    0.0000000000     0.0000000000     0.5000000000 1 !N

