&inputph
 prefix   = 'Nb',
 outdir   = './',
 fildyn   = 'Nb.dyn.xml',
 fildvscf = 'dvscf',
 ldisp    = .true.,
 tr2_ph   = 1.0d-12
 nq1 = 6,
 nq2 = 6,
 nq3 = 6,
/

