pymatgen with grid density = 1665 / number of atoms
0
Gamma
28 28 28
